+0+C+0+0+C+C+C+C/+C+C+C+C+C+0+C+0/+C+0+C+C+0+C+0+C
2.460000
0.500000000  -0.866025403  0.000000000
0.500000000   0.866025403  0.000000000
0.000000000   0.000000000  16.666666667
C
16
Direct
0.3333333333 0.6666666667 0.7560975610 !C
0.6666666667 0.3333333333 0.7560975610 !C
0.0000000000 0.0000000000 0.6829268293 !C
0.3333333333 0.6666666667 0.6829268293 !C
0.3333333333 0.6666666667 0.6097560976 !C
0.6666666667 0.3333333333 0.6097560976 !C
0.3333333333 0.6666666667 0.5365853659 !C
0.6666666667 0.3333333333 0.5365853659 !C
0.0000000000 0.0000000000 0.4634146341 !C
0.3333333333 0.6666666667 0.4634146341 !C
0.0000000000 0.0000000000 0.3902439024 !C
0.6666666667 0.3333333333 0.3902439024 !C
0.0000000000 0.0000000000 0.3170731707 !C
0.3333333333 0.6666666667 0.3170731707 !C
0.0000000000 0.0000000000 0.2439024390 !C
0.6666666667 0.3333333333 0.2439024390 !C
