+0+C+C+C+0/+C+C+C+0+C/+C+0+0+C+C
2.460000
0.500000000  -0.866025403  0.000000000
0.500000000   0.866025403  0.000000000
0.000000000   0.000000000  13.008130081
C
10
Direct
0.3333333333 0.6666666667 0.6875000000 !C
0.6666666667 0.3333333333 0.6875000000 !C
0.0000000000 0.0000000000 0.5937500000 !C
0.3333333333 0.6666666667 0.5937500000 !C
0.0000000000 0.0000000000 0.5000000000 !C
0.3333333333 0.6666666667 0.5000000000 !C
0.0000000000 0.0000000000 0.4062500000 !C
0.6666666667 0.3333333333 0.4062500000 !C
0.3333333333 0.6666666667 0.3125000000 !C
0.6666666667 0.3333333333 0.3125000000 !C
