+0+C+C+0+C+C/+C+0+0+C+0+C/+C+C+C+C+C+0
2.460000
0.500000000  -0.866025403  0.000000000
0.500000000   0.866025403  0.000000000
0.000000000   0.000000000  14.227642276
C
12
Direct
0.3333333333 0.6666666667 0.7142857143 !C
0.6666666667 0.3333333333 0.7142857143 !C
0.0000000000 0.0000000000 0.6285714286 !C
0.6666666667 0.3333333333 0.6285714286 !C
0.0000000000 0.0000000000 0.5428571429 !C
0.6666666667 0.3333333333 0.5428571429 !C
0.3333333333 0.6666666667 0.4571428571 !C
0.6666666667 0.3333333333 0.4571428571 !C
0.0000000000 0.0000000000 0.3714285714 !C
0.6666666667 0.3333333333 0.3714285714 !C
0.0000000000 0.0000000000 0.2857142857 !C
0.3333333333 0.6666666667 0.2857142857 !C
