+0+P+0/+P+0+P/-P-P-P
3.270000
0.500000000  -0.866025403  0.000000000
0.500000000   0.866025403  0.000000000
0.000000000   0.000000000  8.318042813
P
6
Direct
0.3333333333 0.6666666667 0.7007352941 !P
0.6666666667 0.3333333333 0.6551470588 !P
0.0000000000 0.0000000000 0.5227941176 !P
0.6666666667 0.3333333333 0.4772058824 !P
0.3333333333 0.6666666667 0.3448529412 !P
0.6666666667 0.3333333333 0.2992647059 !P
