+0+C+0+0+C+C+0/+C+0+C+C+C+0+C/+C+C+C+C+0+C+C
2.460000
0.500000000  -0.866025403  0.000000000
0.500000000   0.866025403  0.000000000
0.000000000   0.000000000  15.447154472
C
14
Direct
0.3333333333 0.6666666667 0.7368421053 !C
0.6666666667 0.3333333333 0.7368421053 !C
0.0000000000 0.0000000000 0.6578947368 !C
0.6666666667 0.3333333333 0.6578947368 !C
0.3333333333 0.6666666667 0.5789473684 !C
0.6666666667 0.3333333333 0.5789473684 !C
0.3333333333 0.6666666667 0.5000000000 !C
0.6666666667 0.3333333333 0.5000000000 !C
0.0000000000 0.0000000000 0.4210526316 !C
0.3333333333 0.6666666667 0.4210526316 !C
0.0000000000 0.0000000000 0.3421052632 !C
0.6666666667 0.3333333333 0.3421052632 !C
0.3333333333 0.6666666667 0.2631578947 !C
0.6666666667 0.3333333333 0.2631578947 !C
