+0+P-P+0-P/+P-P+0+P+0/-P+0+P-P+P
3.270000
0.500000000  -0.866025403  0.000000000
0.500000000   0.866025403  0.000000000
0.000000000   0.000000000  9.785932722
P
10
Direct
0.3333333333 0.6666666667 0.7867187500 !P
0.6666666667 0.3333333333 0.7470312500 !P
0.0000000000 0.0000000000 0.6532812500 !P
0.3333333333 0.6666666667 0.6135937500 !P
0.0000000000 0.0000000000 0.4801562500 !P
0.6666666667 0.3333333333 0.5198437500 !P
0.3333333333 0.6666666667 0.3864062500 !P
0.6666666667 0.3333333333 0.3467187500 !P
0.0000000000 0.0000000000 0.2132812500 !P
0.6666666667 0.3333333333 0.2529687500 !P
