+0+0/+C+C/+C+C
2.460000
0.500000000  -0.866025403  0.000000000
0.500000000   0.866025403  0.000000000
0.000000000   0.000000000  9.349593496
C
4
Direct
0.3333333333 0.6666666667 0.5652173913 !C
0.6666666667 0.3333333333 0.5652173913 !C
0.3333333333 0.6666666667 0.4347826087 !C
0.6666666667 0.3333333333 0.4347826087 !C
