+0+B+0/+B+0+B/+N+N+N
2.500000
0.500000000  -0.866025403  0.000000000
0.500000000   0.866025403  0.000000000
0.000000000   0.000000000  10.400000000
B N
3 3
Direct
0.3333333333 0.6666666667 0.6153846154 !B
0.0000000000 0.0000000000 0.5000000000 !B
0.3333333333 0.6666666667 0.3846153846 !B
0.6666666667 0.3333333333 0.6153846154 !N
0.6666666667 0.3333333333 0.5000000000 !N
0.6666666667 0.3333333333 0.3846153846 !N
