+0-P/+P+P/-P+0
3.270000
0.500000000  -0.866025403  0.000000000
0.500000000   0.866025403  0.000000000
0.000000000   0.000000000  7.033639144
P
4
Direct
0.3333333333 0.6666666667 0.6204347826 !P
0.6666666667 0.3333333333 0.5652173913 !P
0.0000000000 0.0000000000 0.3795652174 !P
0.3333333333 0.6666666667 0.4347826087 !P
