+0+0+N+0/+B+B+B+B/+N+N+0+N
2.500000
0.500000000  -0.866025403  0.000000000
0.500000000   0.866025403  0.000000000
0.000000000   0.000000000  11.600000000
B N
4 4
Direct
0.3333333333 0.6666666667 0.6551724138 !B
0.3333333333 0.6666666667 0.5517241379 !B
0.3333333333 0.6666666667 0.4482758621 !B
0.3333333333 0.6666666667 0.3448275862 !B
0.6666666667 0.3333333333 0.6551724138 !N
0.6666666667 0.3333333333 0.5517241379 !N
0.0000000000 0.0000000000 0.4482758621 !N
0.6666666667 0.3333333333 0.3448275862 !N
