+0+0/+P+P/-P-P
3.270000
0.500000000  -0.866025403  0.000000000
0.500000000   0.866025403  0.000000000
0.000000000   0.000000000  7.217125382
P
4
Direct
0.3333333333 0.6666666667 0.6288135593 !P
0.6666666667 0.3333333333 0.5762711864 !P
0.3333333333 0.6666666667 0.4237288136 !P
0.6666666667 0.3333333333 0.3711864407 !P
