+0-P+P/+P+P+0/-P+0-P
3.270000
0.500000000  -0.866025403  0.000000000
0.500000000   0.866025403  0.000000000
0.000000000   0.000000000  7.951070336
P
6
Direct
0.3333333333 0.6666666667 0.6886538462 !P
0.6666666667 0.3333333333 0.6398076923 !P
0.0000000000 0.0000000000 0.4755769231 !P
0.3333333333 0.6666666667 0.5244230769 !P
0.0000000000 0.0000000000 0.3601923077 !P
0.6666666667 0.3333333333 0.3113461538 !P
