+0+C+C+0/+C+0+C+C/+C+C+0+C
2.460000
0.500000000  -0.866025403  0.000000000
0.500000000   0.866025403  0.000000000
0.000000000   0.000000000  11.788617886
C
8
Direct
0.3333333333 0.6666666667 0.6551724138 !C
0.6666666667 0.3333333333 0.6551724138 !C
0.0000000000 0.0000000000 0.5517241379 !C
0.6666666667 0.3333333333 0.5517241379 !C
0.0000000000 0.0000000000 0.4482758621 !C
0.3333333333 0.6666666667 0.4482758621 !C
0.3333333333 0.6666666667 0.3448275862 !C
0.6666666667 0.3333333333 0.3448275862 !C
