+0+0+0/+C+C+C/+C+C+C
2.460000
0.500000000  -0.866025403  0.000000000
0.500000000   0.866025403  0.000000000
0.000000000   0.000000000  10.569105691
C
6
Direct
0.3333333333 0.6666666667 0.6153846154 !C
0.6666666667 0.3333333333 0.6153846154 !C
0.3333333333 0.6666666667 0.5000000000 !C
0.6666666667 0.3333333333 0.5000000000 !C
0.3333333333 0.6666666667 0.3846153846 !C
0.6666666667 0.3333333333 0.3846153846 !C
