+0-As+0/+Ga+0+Ga/-As+Ga-As
4.050000
0.500000000  -0.866025403  0.000000000
0.500000000   0.866025403  0.000000000
0.000000000   0.000000000  6.913580247
Ga As
3 3
Direct
0.3333333333 0.6666666667 0.6760714286 !Ga
0.6666666667 0.3333333333 0.5110714286 !Ga
0.3333333333 0.6666666667 0.3460714286 !Ga
0.6666666667 0.3333333333 0.6539285714 !As
0.0000000000 0.0000000000 0.4889285714 !As
0.6666666667 0.3333333333 0.3239285714 !As
