+0+0/+B+B/+N+N
2.500000
0.500000000  -0.866025403  0.000000000
0.500000000   0.866025403  0.000000000
0.000000000   0.000000000  9.200000000
B N
2 2
Direct
0.3333333333 0.6666666667 0.5652173913 !B
0.3333333333 0.6666666667 0.4347826087 !B
0.6666666667 0.3333333333 0.5652173913 !N
0.6666666667 0.3333333333 0.4347826087 !N
