+0+0/+Ga-As/-As+Ga
4.050000
0.500000000  -0.866025403  0.000000000
0.500000000   0.866025403  0.000000000
0.000000000   0.000000000  5.925925926
Ga As
2 2
Direct
0.3333333333 0.6666666667 0.6091666667 !Ga
0.6666666667 0.3333333333 0.4166666667 !Ga
0.6666666667 0.3333333333 0.5833333333 !As
0.3333333333 0.6666666667 0.3908333333 !As
