+0+0+P+0/+P+P-P+P/-P-P+0-P
3.270000
0.500000000  -0.866025403  0.000000000
0.500000000   0.866025403  0.000000000
0.000000000   0.000000000  8.868501529
P
8
Direct
0.3333333333 0.6666666667 0.7427586207 !P
0.6666666667 0.3333333333 0.6989655172 !P
0.3333333333 0.6666666667 0.5955172414 !P
0.6666666667 0.3333333333 0.5517241379 !P
0.0000000000 0.0000000000 0.4482758621 !P
0.3333333333 0.6666666667 0.4044827586 !P
0.3333333333 0.6666666667 0.3010344828 !P
0.6666666667 0.3333333333 0.2572413793 !P
